15	4	2
1594	1594	1594	1594	
457	457	841	
543	22	23	
714	842	1580	
848	85	156	
157	507	886	
564	859	1159	
908	680	1097	
120	21	35	
368	134	197	
716	803	1040	
850	309	357	
292	323	359	
694	276	432	
928	319	463	
359	742	776	
